
1200.0
630.0
1080.0
630.0
630.0
690.0
630.0
630.0
1650.0
630.0
630.0
630.0
630.0
630.0
630.0
810.0
690.0
630.0
630.0
870.0
1080.0
630.0
690.0
630.0
630.0
630.0
630.0
630.0
630.0
630.0
630.0
1140.0
630.0
1050.0
630.0
630.0
630.0
630.0
630.0
630.0
630.0
1500.0
630.0
630.0
630.0
630.0
630.0
930.0
630.0
630.0